l=346;
a=2;
setup_costs=[|0,3,
|3,2,
|0,0|];
setup_times=[|2,3,
|3,0,
|0,0|];
m=2;
min_cap=[0,0];
max_cap=[95,39];

initState=[2,2];
s=5;
m_a_s = [|5,178,193,248,286,
|0,0,0,35,50|];
m_a_e = [|129,193,211,270,313,
|0,0,0,40,233|];
n=10;
eligible_machine = [{2,1},
{2,1},
{2},
{2},
{1,2},
{1,2},
{1},
{2,1},
{1},
{1,2}];
earliest_start=[5,3,6,3,6,5,1,5,6,0];
latest_end=[13,18,32,15,26,23,13,25,32,9];
min_time=[2,7,6,8,8,4,4,8,6,2];
max_time=[10,10,10,10,10,10,10,10,10,10];
size=[3,5,4,2,2,4,4,4,5,2];
attribute=[2,1,2,2,2,1,2,1,2,1];

upper_bound_integer_objective=300;
mult_factor_total_runtime=2;
mult_factor_finished_toolate=12;
mult_factor_total_setuptimes=0;
mult_factor_total_setupcosts=2;
running_time_bound=55;
min_duration=2;
max_duration=8;
max_setup_time=3;
max_setup_cost=3;
